SCIP Status        : solving was interrupted [time limit reached]
Total Time         :    3600.00
  solving          :    3600.00
  presolving       :       0.45 (included in solving)
  reading          :       0.00
  copying          :       3.14 (46 #copies) (minimal 0.00, maximal 0.21, average 0.07)
Original Problem   :
  Problem name     : bbbenchmark/pw05_100.2.cut
  Variables        : 101 (100 binary, 0 integer, 0 implicit integer, 1 continuous)
  Constraints      : 1 initial, 1 maximal
  Objective        : minimize, 1 non-zeros (abs.min = 1, abs.max = 1)
Presolved Problem  :
  Problem name     : t_bbbenchmark/pw05_100.2.cut
  Variables        : 1915 (100 binary, 0 integer, 1801 implicit integer, 14 continuous)
  Constraints      : 1841 initial, 11842 maximal
  Objective        : minimize, 1 non-zeros (abs.min = 1, abs.max = 1)
  Nonzeros         : 8731 constraint, 202 clique table
Presolvers         :   ExecTime  SetupTime  Calls  FixedVars   AggrVars   ChgTypes  ChgBounds   AddHoles    DelCons    AddCons   ChgSides   ChgCoefs
  boundshift       :       0.00       0.00      0          0          0          0          0          0          0          0          0          0
  convertinttobin  :       0.00       0.00      0          0          0          0          0          0          0          0          0          0
  domcol           :       0.00       0.00      1          0          0          0          0          0          0          0          0          0
  dualagg          :       0.00       0.00      0          0          0          0          0          0          0          0          0          0
  dualcomp         :       0.00       0.00      1          0          0          0          0          0          0          0          0          0
  dualinfer        :       0.00       0.00      0          0          0          0          0          0          0          0          0          0
  dualsparsify     :       0.00       0.00      1          0          0          0          0          0          0          0          0          0
  gateextraction   :       0.00       0.00      0          0          0          0          0          0          0          0          0          0
  implics          :       0.00       0.00      2          0          0          0          0          0          0          0          0          0
  inttobinary      :       0.00       0.00      0          0          0          0          0          0          0          0          0          0
  qpkktref         :       0.00       0.00      0          0          0          0          0          0          0          0          0          0
  redvub           :       0.00       0.00      0          0          0          0          0          0          0          0          0          0
  sparsify         :       0.00       0.00      1          0          0          0          0          0          0          0          0          0
  stuffing         :       0.00       0.00      0          0          0          0          0          0          0          0          0          0
  trivial          :       0.00       0.00      4          0          0          0          0          0          0          0          0          0
  tworowbnd        :       0.00       0.00      0          0          0          0          0          0          0          0          0          0
  dualfix          :       0.00       0.00      4          0          0          0          0          0          0          0          0          0
  genvbounds       :       0.00       0.00      0          0          0          0          0          0          0          0          0          0
  probing          :       0.29       0.00      1          0          0          0          0          0          0          0          0          0
  pseudoobj        :       0.00       0.00      1          0          0          0          1          0          0          0          0          0
  symmetry         :       0.00       0.00      0          0          0          0          0          0          0          0          0          0
  vbounds          :       0.00       0.00      1          0          0          0          0          0          0          0          0          0
  varbound         :       0.00       0.00      2          0          0          0          0          0          0          0          0          0
  and              :       0.01       0.01      2          0          0          0          0          0          0          0          0          0
  linear           :       0.00       0.00      2          0          0          0          0          0          0          0          0          0
  logicor          :       0.00       0.00      0          0          0          0          0          0          0          0          0          0
  bounddisjunction :       0.00       0.00      0          0          0          0          0          0          0          0          0          0
  nonlinear        :       0.13       0.00      5          0          0          0          1          0          0       1840          0          0
  benders          :       0.00       0.00      0          0          0          0          0          0          0          0          0          0
  components       :       0.01       0.00      1          0          0          0          0          0          0          0          0          0
  root node        :          -          -      -          0          -          -         16          -          -          -          -          -
Constraints        :     Number  MaxNumber  #Separate #Propagate    #EnfoLP    #EnfoRelax  #EnfoPS    #Check   #ResProp    Cutoffs    DomReds       Cuts    Applied      Conss   Children
  benderslp        :          0          0          0          0      57548          0          0       7146          0          0          0          0          0          0          0
  integral         :          0          0          0          0      57548          0          0       7146          0          0        190          0          0         91     114906
  varbound         :         13         13         84     533976          0          0          0         72          0          0      29945          0          0          0          0
  and              :       1801       1801      71839     586078         10          0          0         72     556073          3     947709       4438       4132          0          0
  linear           :         27+        39         84     586112         10          0          0         70        211          3     171039          0          0          0          0
  logicor          :          0+      9983          0      72966          0          0          0          0         47        483         27          0          0          0          0
  bounddisjunction :          0+        62          0      21328          0          0          0          0          1         10          2          0          0          0          0
  benders          :          0          0          0          0         10          0          0         39          0          0          0          0          0          0          0
  countsols        :          0          0          0          0         10          0          0         39          0          0          0          0          0          0          0
  components       :          0          0          0          0          0          0          0          0          0          0          0          0          0          0          0
Constraint Timings :  TotalTime  SetupTime   Separate  Propagate     EnfoLP     EnfoPS     EnfoRelax   Check    ResProp    SB-Prop
  benderslp        :       0.08       0.00       0.00       0.00       0.08       0.00       0.00       0.00       0.00       0.00
  integral         :      55.27       0.00       0.00       0.00      55.26       0.00       0.00       0.01       0.00       0.00
  varbound         :       0.43       0.00       0.00       0.41       0.00       0.00       0.00       0.00       0.00       0.02
  and              :      86.74       0.01      54.26      31.54       0.01       0.00       0.00       0.00       0.28       0.64
  linear           :       3.22       0.00       0.08       3.10       0.00       0.00       0.00       0.00       0.00       0.04
  logicor          :      10.16       0.00       0.00      10.11       0.00       0.00       0.00       0.00       0.00       0.05
  bounddisjunction :       0.14       0.00       0.00       0.14       0.00       0.00       0.00       0.00       0.00       0.00
  benders          :       0.00       0.00       0.00       0.00       0.00       0.00       0.00       0.00       0.00       0.00
  countsols        :       0.00       0.00       0.00       0.00       0.00       0.00       0.00       0.00       0.00       0.00
  components       :       0.17       0.00       0.00       0.17       0.00       0.00       0.00       0.00       0.00       0.00
Propagators        : #Propagate   #ResProp    Cutoffs    DomReds
  dualfix          :          4          0          0          0
  genvbounds       :          0          0          0          0
  nlobbt           :          0          0          0          0
  obbt             :          0          0          0          0
  probing          :          0          0          0          0
  pseudoobj        :     244151          0          0         25
  redcost          :     138594          0          0     110124
  rootredcost      :         20          0          0          0
  symmetry         :          0          0          0          0
  vbounds          :      70241          0          0          0
Propagator Timings :  TotalTime  SetupTime   Presolve  Propagate    ResProp    SB-Prop
  dualfix          :       0.00       0.00       0.00       0.00       0.00       0.00
  genvbounds       :       0.39       0.00       0.00       0.39       0.00       0.00
  nlobbt           :       0.00       0.00       0.00       0.00       0.00       0.00
  obbt             :       0.00       0.00       0.00       0.00       0.00       0.00
  probing          :       0.29       0.00       0.29       0.00       0.00       0.00
  pseudoobj        :       0.51       0.00       0.00       0.51       0.00       0.00
  redcost          :      10.36       0.00       0.00      10.36       0.00       0.00
  rootredcost      :       0.37       0.00       0.00       0.37       0.00       0.00
  symmetry         :       0.28       0.00       0.00       0.28       0.00       0.00
  vbounds          :       0.52       0.00       0.00       0.51       0.00       0.01
Conflict Analysis  :       Time      Calls    Success    DomReds  Conflicts   Literals    Reconvs ReconvLits   Dualrays   Nonzeros   LP Iters   (pool size: [10000,10000])
  propagation      :       0.00        496        370          -        471       61.1          0        0.0          -          -          -
  infeasible LP    :       0.02         10         10          -        448      153.0          0        0.0         30      151.4          0
  bound exceed. LP :      29.48       5266       5055          -     155740      110.0          0        0.0          0        0.0      65203
  strong branching :       0.00          0          0          -          0        0.0          0        0.0          -          -          0
  pseudo solution  :       0.00          0          0          -          0        0.0          0        0.0          -          -          -
  applied globally :       0.90          -          -          0      34196      130.2          -          -         30          -          -
  applied locally  :          -          -          -          0          0        0.0          -          -          0          -          -
Separators         :   ExecTime  SetupTime      Calls  RootCalls    Cutoffs    DomReds  FoundCuts ViaPoolAdd  DirectAdd    Applied ViaPoolApp  DirectApp      Conss
  cut pool         :       6.23          -      23651        110          -          -      45562    1355424          -          -          -          -          -    (maximal pool size:       3131)
  aggregation      :     143.12       0.00       7743         84          0          0        557        396          0        119        119          0          0
  > cmir           :          -          -          -          -          -          -          -        396          0        119        119          0          -
  > flowcover      :          -          -          -          -          -          -          -          0          0          0          0          0          -
  > knapsackcover  :          -          -          -          -          -          -          -          0          0          0          0          0          -
  cgmip            :       0.00       0.00          0          0          0          0          0          0          0          0          0          0          0
  clique           :       0.00       0.00         84         84          0          0          0          0          0          0          0          0          0
  closecuts        :       0.00       0.00          0          0          0          0          0          0          0          0          0          0          0
  convexproj       :       0.00       0.00          0          0          0          0          0          0          0          0          0          0          0
  disjunctive      :       0.00       0.00          0          0          0          0          0          0          0          0          0          0          0
  eccuts           :       0.00       0.00          0          0          0          0          0          0          0          0          0          0          0
  gauge            :       0.00       0.00          0          0          0          0          0          0          0          0          0          0          0
  gomory           :       0.00       0.00          0          0          0          0          0          0          0          0          0          0          0
  > gomorymi       :          -          -          -          -          -          -          -          0          0          0          0          0          -
  > strongcg       :          -          -          -          -          -          -          -          0          0          0          0          0          -
  impliedbounds    :       0.52       0.00       7743         84          0          0         20          0          0          0          0          0          0
  interlattice     :       0.44       0.00         58         58          0          0         58          0         58         53          0         53          0
  interminor       :       0.00       0.00          0          0          0          0          0          0          0          0          0          0          0
  intersub         :       0.12       0.00          5          5          0          0          3          0          3          3          0          3          0
  intobj           :       0.00       0.00          0          0          0          0          0          0          0          0          0          0          0
  mcf              :       0.01       0.00          1          1          0          0          0          0          0          0          0          0          0
  minor            :       0.01       0.00          0          0          0          0          0          0          0          0          0          0          0
  mixing           :       0.04       0.00       7743         84          0          0          0          0          0          0          0          0          0
  oddcycle         :       0.00       0.00          0          0          0          0          0          0          0          0          0          0          0
  rapidlearning    :       0.00       0.00          0          0          0          0          0          0          0          0          0          0          0
  rlt              :       0.00       0.00         10         10          0          0          0          0          0          0          0          0          0
  zerohalf         :      75.39       0.00       6722         20          0          0      44985    1355028          0     163897     163897          0          0
Cutselectors       :   ExecTime  SetupTime      Calls  RootCalls   Selected     Forced   Filtered  RootSelec   RootForc   RootFilt 
  hybrid           :       1.55       0.00      14590         84     168204          0    1191719        264          0         16
Pricers            :   ExecTime  SetupTime      Calls       Vars
  problem variables:       0.00          -          0          0
Branching Rules    :   ExecTime  SetupTime   BranchLP  BranchExt   BranchPS    Cutoffs    DomReds       Cuts      Conss   Children
  allfullstrong    :       0.00       0.00          0          0          0          0          0          0          0          0
  cloud            :       0.00       0.00          0          0          0          0          0          0          0          0
  distribution     :       0.00       0.00          0          0          0          0          0          0          0          0
  fullstrong       :       0.00       0.00          0          0          0          0          0          0          0          0
  inference        :       0.00       0.00          0          0          0          0          0          0          0          0
  leastinf         :       0.00       0.00          0          0          0          0          0          0          0          0
  lookahead        :       0.00       0.00          0          0          0          0          0          0          0          0
  mostinf          :       0.00       0.00          0          0          0          0          0          0          0          0
  multaggr         :       0.00       0.00          0          0          0          0          0          0          0          0
  nodereopt        :       0.00       0.00          0          0          0          0          0          0          0          0
  pscost           :       0.00       0.00          0          0          0          0          0          0          0          0
  random           :       0.00       0.00          0          0          0          0          0          0          0          0
  relpscost        :      55.00       0.00      57538          0          0          0        190          0        106     114906
  vanillafullstrong:       0.00       0.00          0          0          0          0          0          0          0          0
Primal Heuristics  :   ExecTime  SetupTime      Calls      Found       Best
  LP solutions     :       0.02          -          -         10         10
  relax solutions  :       0.00          -          -          0          0
  pseudo solutions :       0.00          -          -          0          0
  strong branching :       0.04          -          -          0          0
  actconsdiving    :       0.00       0.00          0          0          0
  adaptivediving   :       4.94       0.00         28          0          0
  alns             :       5.29       0.00         21          9          9
  bound            :       0.00       0.00          0          0          0
  clique           :       0.00       0.00          1          0          0
  coefdiving       :       0.00       0.00          0          0          0
  completesol      :       0.00       0.00          0          0          0
  conflictdiving   :     174.19       0.00       1126          0          0
  crossover        :       1.53       0.00          7          0          0
  dins             :       0.00       0.00          0          0          0
  distributiondivin:      78.44       0.00        315          0          0
  dps              :       0.00       0.00          0          0          0
  dualval          :       0.00       0.00          0          0          0
  farkasdiving     :       0.00       0.00          0          0          0
  feaspump         :       0.26       0.00          1          1          1
  fixandinfer      :       0.00       0.00          0          0          0
  fracdiving       :      73.71       0.00        343          0          0
  gins             :       0.16       0.00          0          0          0
  guideddiving     :      62.69       0.00        385          1          1
  indicator        :       0.08       0.00          0          0          0
  indicatordiving  :       0.00       0.00          0          0          0
  intdiving        :       0.00       0.00          0          0          0
  intshifting      :       0.64       0.00         63          0          0
  linesearchdiving :      59.77       0.00        381          0          0
  localbranching   :       0.00       0.00          0          0          0
  locks            :       0.02       0.00          1          0          0
  lpface           :       0.06       0.00          0          0          0
  mpec             :     171.38       0.00         11          3          3
  multistart       :       0.00       0.00          0          0          0
  mutation         :       0.00       0.00          0          0          0
  nlpdiving        :      13.90       0.00          5          0          0
  objpscostdiving  :      60.87       0.00         56         11          0
  octane           :       0.00       0.00          0          0          0
  ofins            :       0.07       0.00          0          0          0
  oneopt           :       0.09       0.00         28          0          0
  padm             :       0.00       0.00          0          0          0
  proximity        :       0.00       0.00          0          0          0
  pscostdiving     :      64.02       0.00        343          1          1
  randrounding     :       0.94       0.00       7103          0          0
  rens             :       0.00       0.00          0          0          0
  reoptsols        :       0.00       0.00          0          0          0
  repair           :       0.00       0.00          0          0          0
  rins             :       4.37       0.00         17          0          0
  rootsoldiving    :      36.04       0.00         20          0          0
  rounding         :       1.46       0.00       3762          0          0
  shiftandpropagate:       0.00       0.00          0          0          0
  shifting         :      60.83       0.00      11095          7          6
  simplerounding   :       0.07       0.00          0          0          0
  subnlp           :     113.54       0.00          0          0          0
  trivial          :       0.01       0.00          2          2          2
  trivialnegation  :       0.00       0.00          0          0          0
  trustregion      :       0.00       0.00          0          0          0
  trysol           :       0.09       0.00          0          0          0
  twoopt           :       0.00       0.00          0          0          0
  undercover       :       1.96       0.00          1          1          1
  vbounds          :       0.00       0.00          0          0          0
  veclendiving     :      61.65       0.00        408          0          0
  zeroobj          :       0.00       0.00          0          0          0
  zirounding       :       0.42       0.00       1000          0          0
  other solutions  :          -          -          -          0          -
Diving (single)    :      Calls      Nodes   LP Iters Backtracks  Conflicts   MinDepth   MaxDepth   AvgDepth  RoundSols  NLeafSols  MinSolDpt  MaxSolDpt  AvgSolDpt
  actconsdiving    :          0          -          -          -          -          -          -          -          -          -          -          -          -
  coefdiving       :          0          -          -          -          -          -          -          -          -          -          -          -          -
  conflictdiving   :       1126      47762    1196425       1205      74514         48         89       62.6          0          -          -          -          -
  distributiondivin:        315      11474     478631        343      10418         45         63       54.2          0          -          -          -          -
  farkasdiving     :          0          -          -          -          -          -          -          -          -          -          -          -          -
  fracdiving       :        343      74271     478314        114       1367         55        751      235.1          0          -          -          -          -
  guideddiving     :        385      60179     437523         10        398         53        307      176.3          0          1        134        134      134.0
  indicatordiving  :          0          -          -          -          -          -          -          -          -          -          -          -          -
  linesearchdiving :        381      16412     442777        411      22404         46         91       62.1          0          -          -          -          -
  pscostdiving     :        343      15211     490465        350      15849         49         81       62.8          0          1         81         81       81.0
  veclendiving     :        408      16950     426016        404      29617         49         84       59.9          0          -          -          -          -
Diving (adaptive)  :      Calls      Nodes   LP Iters Backtracks  Conflicts   MinDepth   MaxDepth   AvgDepth  RoundSols  NLeafSols  MinSolDpt  MaxSolDpt  AvgSolDpt
  actconsdiving    :          2         41       1403          2         27         54         55       54.5          0          -          -          -          -
  coefdiving       :          8        312       9477          7        498         45         76       58.4          0          -          -          -          -
  conflictdiving   :          0          -          -          -          -          -          -          -          -          -          -          -          -
  distributiondivin:          0          -          -          -          -          -          -          -          -          -          -          -          -
  farkasdiving     :          0          -          -          -          -          -          -          -          -          -          -          -          -
  fracdiving       :          1         82       1186          0          0         92         92       92.0          0          -          -          -          -
  guideddiving     :          9       1758      12784          0          0        131        256      211.0          0          -          -          -          -
  indicatordiving  :          0          -          -          -          -          -          -          -          -          -          -          -          -
  linesearchdiving :          3        132       3578          3        198         61         65       63.0          0          -          -          -          -
  pscostdiving     :          2         86       2896          2         74         60         61       60.5          0          -          -          -          -
  veclendiving     :          3        126       3248          3        232         58         60       58.7          0          -          -          -          -
Neighborhoods      :      Calls  SetupTime  SolveTime SolveNodes       Sols       Best       Exp3  EpsGreedy        UCB TgtFixRate  Opt  Inf Node Stal  Sol  Usr Othr Actv
  rens             :          3       0.43       0.06          3          0          0    0.00000   -1.00000    0.53850      0.437    0    3    0    0    0    0    0    1
  rins             :          2       0.11       0.09         61          0          0    0.00000   -1.00000    0.47296      0.850    0    1    0    1    0    0    0    1
  mutation         :          4       0.21       1.65       1435          4          4    0.00000   -1.00000    0.54339      0.747    2    0    0    2    0    0    0    1
  localbranching   :          3       0.41       0.33        452          2          2    0.00000   -1.00000    0.47132      0.812    0    1    0    2    0    0    0    1
  crossover        :          3       0.12       0.32        129          3          3    0.00000   -1.00000    0.50631      0.662    0    1    0    1    1    0    0    1
  proximity        :          2       0.36       0.14         83          0          0    0.00000   -1.00000    0.47023      0.850    0    1    0    1    0    0    0    1
  zeroobjective    :          2       0.37       0.06         80          0          0    0.00000   -1.00000    0.46916      0.850    0    1    0    1    0    0    0    1
  dins             :          2       0.33       0.10         75          0          0    0.00000   -1.00000    0.47023      0.850    0    1    0    1    0    0    0    1
  trustregion      :          0       0.00       0.00          0          0          0    0.00000   -1.00000    1.00000      0.900    0    0    0    0    0    0    0    0
Expressions        :   #IntEval  IntEvalTi   #RevProp  RevPropTi    DomReds    Cutoffs  #Estimate  EstimTime  Branching  #Simplify SimplifyTi Simplified
  pow              :          0       0.00          0       0.00          0          0          0       0.00          0          0       0.00          0
  prod             :       9900       0.01          0       0.00          0          0          0       0.00          0       6751       0.00          0
  sum              :          8       0.01          2       0.00          0          0          0       0.00          0          3       0.03          2
  var              :       6554       0.00          0       0.00          0          0          0       0.00          0      15619       0.02          0
  varidx           :          0       0.00          0       0.00          0          0          0       0.00          0          0       0.00          0
LP                 :       Time      Calls Iterations  Iter/call   Iter/sec  Time-0-It Calls-0-It    ItLimit
  primal LP        :     128.33       9467          0       0.00       0.00     128.33       9467
  dual LP          :    1915.25     109818    9265595      91.83    4837.80       4.80       8924
  lex dual LP      :       0.00          0          0       0.00          -
  barrier LP       :       0.00          0          0       0.00          -       0.00          0
  resolve instable :       0.00          0          0       0.00          -
  diving/probing LP:     570.35      14366    4439091     309.00    7783.10
  strong branching :      33.13       1681     237716     141.41    7175.25          -          -        516
    (at root node) :          -         20       4247     212.35          -
  conflict analysis:      12.51       6559      65203       9.94    5212.07
NLP relaxation     :
  solve time       :      13.15 (10 calls)
  convexity        :  nonconvex (40 linear rows, 0 convex ineq., 0 nonconvex ineq., 1801 nonlinear eq. or two-sided ineq.)
NLP Solvers        :  #Problems  ProblemTi    #Solves  SolveTime      #Iter  Time/Iter      #Okay #TimeLimit #IterLimit #LObjLimit #Interrupt  #NumError #EvalError  #OutOfMem #LicenseEr #OtherTerm   #GlobOpt    #LocOpt  #Feasible #LocInfeas #GlobInfea #Unbounded   #Unknown
  ipopt            :         12       5.56         34     190.09       1747       0.11         32          0          2          0          0          0          0          0          0          0          0         16          0         12          0          0          6
B&B Tree           :
  number of runs   :          1
  nodes            :      86244 (57453 internal, 28791 leaves)
  feasible leaves  :         10
  infeas. leaves   :          8
  objective leaves :      28772
  nodes (total)    :      86244 (57453 internal, 28791 leaves)
  nodes left       :      28571
  max depth        :         63
  max depth (total):         63
  backtracks       :      19963 (23.1%)
  early backtracks :          0 (0.0%)
  nodes exc. ref.  :          0 (0.0%)
  delayed cutoffs  :          8
  repropagations   :         55 (119 domain reductions, 0 cutoffs)
  avg switch length:       5.96
  switching time   :     152.68
Estim. Tree Size   :     172672
Estimation Tree    : 114907 nodes (86336 visited, 57453 internal, 28883 leaves, 28571 open), weight: 0.0000 completed 0.1172
Estimations        :      estim      value      trend resolution     smooth
  wbe              : 49980891019456          -          -          -          -
  tree-profile     :         -1          -          -          -          -
  gap              :    1909631    0.69387    0.00001         32    1872953
  tree-weight      :     172672    0.00000    0.00000         32     172539
  leaf-frequency   :    1026905    0.33454    0.00001         32    1178759
  ssg              :    2601384    0.81502   -0.00002         32    2590228
  open-nodes       :     172672 28571.00000   12.51039         32     172539
Root Node          :
  First LP value   : -5.45898989898991e+00
  First LP Iters   :       1707 (8984.21 Iter/sec)
  First LP Time    :       0.19
  Final Dual Bound : -5.21713277961856e+00
  Final Root Iters :       2811
  Root LP Estimate : -2.03630937385634e+00
Solution           :
  Solutions found  :         46 (34 improvements)
  First Solution   : +1.00000000000000e+05   (in run 1, after 0 nodes, 0.05 seconds, depth 0, found by <trivial>)
  Gap First Sol.   :   infinite
  Gap Last Sol.    :      46.19 %
  Primal Bound     : -3.16606060606060e+00   (in run 1, after 54465 nodes, 1531.98 seconds, depth 20, found by <alns>)
  Dual Bound       : -4.56288673875068e+00
  Gap              :      44.12 %
Integrals          :      Total       Avg%
  primal-dual      :  119280.02      33.13
  primal-ref       :          -          - (not evaluated)
  dual-ref         :          -          - (not evaluated)
